100 10
661 601
507 241
608 56
638 242
417 513
663 257
779 128
465 580
655 503
752 149
319 884
561 613
132 843
519 513
474 822
444 655
558 484
589 294
362 498
328 471
593 237
364 654
184 837
775 387
960 200
325 230
894 540
520 364
700 93
260 527
565 398
759 75
580 877
658 266
187 757
417 451
963 127
615 276
501 847
284 652
597 433
687 419
435 634
277 492
527 453
674 834
558 439
537 618
352 739
468 676
512 635
516 548
574 880
324 597
548 338
434 859
378 808
454 146
361 640
297 293
484 966
483 347
513 365
333 428
657 269
400 455
528 461
500 369
247 411
681 832
579 410
438 537
685 602
761 522
788 689
342 478
746 513
541 292
823 458
564 896
479 702
341 915
665 514
580 520
419 311
581 589
454 280
463 713
309 848
681 662
752 197
443 841
380 301
659 609
287 671
323 784
773 558
706 578
645 449
698 359
